NAME : kroD100-C-5-0-a.28228.tour
COMMENT : Length = 28228
COMMENT : Found by LKH-3 [Keld Helsgaun] Tue Jul 30 13:14:12 2024
TYPE : TOUR
DIMENSION : 100
TOUR_SECTION
1
41
73
39
91
54
63
77
43
71
4
93
44
60
53
5
3
83
40
6
59
64
85
18
25
20
9
10
56
95
26
87
55
92
48
2
100
30
35
51
19
37
62
16
96
86
78
57
72
76
80
69
15
84
52
8
46
61
74
7
75
67
36
29
58
22
42
23
11
17
90
89
70
49
98
97
32
94
50
13
79
88
24
27
81
34
38
66
31
99
45
33
68
14
12
28
21
47
82
65
-1
EOF
